param n := 120;
param c := 150;
param : V : p w :=
   0	  93	  83
   1	  47	  37
   2	 108	  98
   3	  95	  85
   4	  98	  88
   5	 105	  95
   6	  39	  29
   7	  45	  35
   8	 110	 100
   9	  65	  55
  10	  58	  48
  11	  37	  27
  12	  30	  20
  13	  76	  66
  14	  72	  62
  15	  62	  52
  16	  98	  88
  17	  69	  59
  18	 107	  97
  19	 101	  91
  20	  91	  81
  21	  91	  81
  22	  96	  86
  23	  58	  48
  24	  53	  43
  25	  70	  60
  26	  82	  72
  27	  98	  88
  28	 100	  90
  29	  58	  48
  30	  48	  38
  31	  70	  60
  32	  63	  53
  33	  65	  55
  34	 100	  90
  35	  58	  48
  36	  65	  55
  37	  67	  57
  38	  69	  59
  39	  35	  25
  40	  61	  51
  41	  32	  22
  42	  53	  43
  43	  41	  31
  44	  62	  52
  45	  99	  89
  46	 106	  96
  47	  68	  58
  48	  73	  63
  49	  37	  27
  50	  56	  46
  51	  53	  43
  52	  40	  30
  53	  54	  44
  54	  81	  71
  55	  76	  66
  56	  74	  64
  57	  38	  28
  58	  93	  83
  59	  98	  88
  60	  52	  42
  61	 102	  92
  62	 105	  95
  63	  46	  36
  64	  34	  24
  65	  72	  62
  66	  54	  44
  67	  92	  82
  68	  69	  59
  69	  41	  31
  70	 106	  96
  71	  54	  44
  72	  71	  61
  73	  88	  78
  74	  82	  72
  75	  72	  62
  76	  86	  76
  77	  75	  65
  78	  32	  22
  79	  51	  41
  80	  37	  27
  81	  95	  85
  82	  90	  80
  83	  82	  72
  84	 110	 100
  85	  39	  29
  86	  37	  27
  87	  53	  43
  88	  93	  83
  89	  42	  32
  90	  43	  33
  91	  63	  53
  92	 105	  95
  93	 109	  99
  94	  30	  20
  95	  33	  23
  96	  82	  72
  97	  60	  50
  98	  60	  50
  99	  37	  27
 100	  99	  89
 101	  63	  53
 102	  85	  75
 103	  91	  81
 104	  44	  34
 105	  37	  27
 106	  79	  69
 107	  58	  48
 108	  94	  84
 109	  47	  37
 110	  79	  69
 111	  64	  54
 112	  61	  51
 113	  59	  49
 114	  59	  49
 115	  64	  54
 116	 110	 100
 117	  65	  55
 118	  55	  45
 119	  93	  83
;

set E :=
   0	   2
   0	   3
   0	   4
   0	   7
   0	   9
   0	  10
   0	  13
   0	  14
   0	  15
   0	  16
   0	  17
   0	  19
   0	  23
   0	  24
   0	  30
   0	  32
   0	  33
   0	  34
   0	  36
   0	  37
   0	  38
   0	  39
   0	  40
   0	  44
   0	  45
   0	  46
   0	  47
   0	  50
   0	  51
   0	  52
   0	  55
   0	  57
   0	  60
   0	  66
   0	  67
   0	  70
   0	  72
   0	  73
   0	  77
   0	  78
   0	  79
   0	  82
   0	  83
   0	  84
   0	  85
   0	  86
   0	  87
   0	  89
   0	  93
   0	  94
   0	  95
   0	 102
   0	 103
   0	 104
   0	 105
   0	 107
   0	 113
   0	 114
   0	 118
   1	   5
   1	   6
   1	  10
   1	  11
   1	  14
   1	  20
   1	  21
   1	  22
   1	  24
   1	  25
   1	  27
   1	  28
   1	  31
   1	  32
   1	  34
   1	  36
   1	  42
   1	  48
   1	  51
   1	  57
   1	  58
   1	  59
   1	  62
   1	  67
   1	  68
   1	  71
   1	  72
   1	  73
   1	  77
   1	  79
   1	  80
   1	  82
   1	  83
   1	  85
   1	  86
   1	  88
   1	  90
   1	  91
   1	  92
   1	  93
   1	  94
   1	  98
   1	 100
   1	 102
   1	 103
   1	 104
   1	 105
   1	 107
   1	 110
   1	 115
   1	 116
   1	 117
   1	 118
   2	   6
   2	   7
   2	   9
   2	  11
   2	  13
   2	  17
   2	  18
   2	  20
   2	  25
   2	  27
   2	  31
   2	  33
   2	  34
   2	  35
   2	  38
   2	  42
   2	  44
   2	  50
   2	  52
   2	  53
   2	  54
   2	  55
   2	  56
   2	  57
   2	  58
   2	  60
   2	  61
   2	  62
   2	  67
   2	  68
   2	  69
   2	  71
   2	  75
   2	  76
   2	  77
   2	  79
   2	  80
   2	  81
   2	  82
   2	  83
   2	  84
   2	  85
   2	  88
   2	  89
   2	  92
   2	  93
   2	  95
   2	  96
   2	 100
   2	 103
   2	 106
   2	 107
   2	 111
   2	 113
   2	 114
   2	 119
   3	   5
   3	   6
   3	   9
   3	  17
   3	  18
   3	  19
   3	  23
   3	  25
   3	  27
   3	  28
   3	  31
   3	  32
   3	  35
   3	  37
   3	  38
   3	  40
   3	  45
   3	  47
   3	  49
   3	  50
   3	  51
   3	  52
   3	  55
   3	  57
   3	  58
   3	  59
   3	  60
   3	  63
   3	  64
   3	  66
   3	  67
   3	  68
   3	  69
   3	  70
   3	  71
   3	  73
   3	  77
   3	  78
   3	  79
   3	  80
   3	  81
   3	  83
   3	  84
   3	  86
   3	  88
   3	  89
   3	  90
   3	  93
   3	  94
   3	  95
   3	  96
   3	  97
   3	  98
   3	  99
   3	 100
   3	 102
   3	 103
   3	 105
   3	 106
   3	 107
   3	 110
   3	 112
   3	 117
   3	 118
   4	   5
   4	   6
   4	   7
   4	   8
   4	   9
   4	  11
   4	  14
   4	  15
   4	  17
   4	  21
   4	  23
   4	  24
   4	  25
   4	  28
   4	  32
   4	  34
   4	  38
   4	  43
   4	  47
   4	  48
   4	  49
   4	  51
   4	  53
   4	  54
   4	  55
   4	  56
   4	  57
   4	  59
   4	  61
   4	  63
   4	  65
   4	  68
   4	  69
   4	  73
   4	  78
   4	  79
   4	  80
   4	  81
   4	  83
   4	  84
   4	  85
   4	  87
   4	  88
   4	  89
   4	  91
   4	  92
   4	  93
   4	 100
   4	 102
   4	 104
   4	 108
   4	 109
   4	 110
   4	 114
   4	 117
   4	 119
   5	   7
   5	   8
   5	   9
   5	  11
   5	  13
   5	  17
   5	  18
   5	  19
   5	  21
   5	  22
   5	  23
   5	  28
   5	  33
   5	  34
   5	  37
   5	  38
   5	  39
   5	  40
   5	  43
   5	  46
   5	  47
   5	  48
   5	  50
   5	  53
   5	  56
   5	  60
   5	  66
   5	  67
   5	  68
   5	  70
   5	  71
   5	  72
   5	  73
   5	  75
   5	  76
   5	  77
   5	  78
   5	  81
   5	  82
   5	  83
   5	  85
   5	  86
   5	  89
   5	  97
   5	  99
   5	 101
   5	 102
   5	 103
   5	 109
   5	 112
   5	 114
   5	 115
   5	 116
   5	 117
   5	 118
   5	 119
   6	   7
   6	   8
   6	   9
   6	  13
   6	  16
   6	  17
   6	  19
   6	  20
   6	  23
   6	  24
   6	  27
   6	  28
   6	  32
   6	  33
   6	  38
   6	  40
   6	  41
   6	  45
   6	  47
   6	  48
   6	  49
   6	  51
   6	  53
   6	  56
   6	  57
   6	  58
   6	  60
   6	  63
   6	  64
   6	  65
   6	  67
   6	  72
   6	  73
   6	  74
   6	  75
   6	  77
   6	  78
   6	  79
   6	  81
   6	  83
   6	  84
   6	  86
   6	  88
   6	  90
   6	  91
   6	  95
   6	  97
   6	  98
   6	  99
   6	 100
   6	 101
   6	 104
   6	 107
   6	 108
   6	 110
   6	 111
   6	 112
   6	 113
   6	 114
   6	 116
   7	   8
   7	  12
   7	  14
   7	  15
   7	  18
   7	  19
   7	  20
   7	  21
   7	  22
   7	  23
   7	  25
   7	  27
   7	  28
   7	  29
   7	  30
   7	  31
   7	  32
   7	  33
   7	  39
   7	  43
   7	  44
   7	  46
   7	  48
   7	  49
   7	  50
   7	  51
   7	  52
   7	  53
   7	  56
   7	  59
   7	  62
   7	  64
   7	  66
   7	  67
   7	  68
   7	  69
   7	  72
   7	  73
   7	  74
   7	  75
   7	  77
   7	  78
   7	  79
   7	  80
   7	  81
   7	  83
   7	  84
   7	  88
   7	  89
   7	  90
   7	  92
   7	  94
   7	  95
   7	  97
   7	  98
   7	 101
   7	 102
   7	 103
   7	 105
   7	 106
   7	 107
   7	 108
   7	 109
   7	 111
   7	 112
   7	 113
   7	 115
   7	 117
   7	 119
   8	  12
   8	  15
   8	  17
   8	  18
   8	  19
   8	  21
   8	  22
   8	  23
   8	  25
   8	  26
   8	  27
   8	  29
   8	  38
   8	  39
   8	  40
   8	  41
   8	  42
   8	  43
   8	  45
   8	  46
   8	  48
   8	  49
   8	  50
   8	  55
   8	  56
   8	  62
   8	  64
   8	  65
   8	  68
   8	  69
   8	  75
   8	  77
   8	  79
   8	  82
   8	  83
   8	  90
   8	  91
   8	  92
   8	  93
   8	  95
   8	  97
   8	 100
   8	 101
   8	 102
   8	 103
   8	 104
   8	 105
   8	 106
   8	 107
   8	 108
   8	 111
   8	 113
   8	 114
   8	 115
   8	 116
   9	  10
   9	  11
   9	  12
   9	  13
   9	  14
   9	  15
   9	  16
   9	  17
   9	  18
   9	  19
   9	  20
   9	  21
   9	  22
   9	  24
   9	  25
   9	  29
   9	  31
   9	  33
   9	  35
   9	  36
   9	  37
   9	  38
   9	  40
   9	  46
   9	  47
   9	  48
   9	  50
   9	  54
   9	  55
   9	  58
   9	  60
   9	  62
   9	  63
   9	  68
   9	  70
   9	  71
   9	  72
   9	  74
   9	  75
   9	  76
   9	  77
   9	  78
   9	  79
   9	  80
   9	  81
   9	  83
   9	  84
   9	  86
   9	  88
   9	  92
   9	  93
   9	  97
   9	  99
   9	 101
   9	 102
   9	 103
   9	 107
   9	 108
   9	 109
   9	 113
   9	 114
   9	 115
   9	 116
   9	 118
  10	  11
  10	  17
  10	  18
  10	  19
  10	  20
  10	  21
  10	  23
  10	  26
  10	  29
  10	  30
  10	  33
  10	  34
  10	  35
  10	  40
  10	  41
  10	  42
  10	  44
  10	  45
  10	  47
  10	  49
  10	  51
  10	  56
  10	  57
  10	  58
  10	  60
  10	  62
  10	  63
  10	  64
  10	  70
  10	  73
  10	  74
  10	  76
  10	  77
  10	  78
  10	  79
  10	  81
  10	  84
  10	  85
  10	  89
  10	  92
  10	  95
  10	  97
  10	  98
  10	  99
  10	 100
  10	 102
  10	 107
  10	 108
  10	 112
  10	 114
  10	 115
  10	 117
  10	 118
  10	 119
  11	  13
  11	  14
  11	  23
  11	  24
  11	  28
  11	  29
  11	  30
  11	  32
  11	  33
  11	  35
  11	  36
  11	  37
  11	  39
  11	  40
  11	  45
  11	  46
  11	  47
  11	  49
  11	  52
  11	  57
  11	  60
  11	  61
  11	  64
  11	  65
  11	  66
  11	  68
  11	  71
  11	  72
  11	  73
  11	  76
  11	  79
  11	  87
  11	  88
  11	  89
  11	  90
  11	  91
  11	  92
  11	  93
  11	  96
  11	  99
  11	 104
  11	 105
  11	 106
  11	 107
  11	 109
  11	 110
  11	 112
  11	 113
  11	 114
  12	  13
  12	  14
  12	  16
  12	  18
  12	  25
  12	  26
  12	  31
  12	  32
  12	  33
  12	  36
  12	  37
  12	  38
  12	  42
  12	  44
  12	  46
  12	  48
  12	  50
  12	  52
  12	  53
  12	  56
  12	  57
  12	  58
  12	  61
  12	  63
  12	  65
  12	  66
  12	  69
  12	  72
  12	  73
  12	  76
  12	  77
  12	  78
  12	  81
  12	  83
  12	  85
  12	  88
  12	  89
  12	  90
  12	  93
  12	  95
  12	  97
  12	  98
  12	  99
  12	 100
  12	 101
  12	 105
  12	 112
  12	 115
  12	 117
  12	 119
  13	  14
  13	  15
  13	  16
  13	  19
  13	  20
  13	  21
  13	  22
  13	  24
  13	  25
  13	  27
  13	  30
  13	  32
  13	  35
  13	  36
  13	  37
  13	  38
  13	  41
  13	  42
  13	  43
  13	  45
  13	  46
  13	  47
  13	  50
  13	  51
  13	  54
  13	  55
  13	  56
  13	  62
  13	  63
  13	  66
  13	  70
  13	  74
  13	  75
  13	  76
  13	  79
  13	  80
  13	  81
  13	  82
  13	  83
  13	  88
  13	  90
  13	  93
  13	  97
  13	  99
  13	 100
  13	 101
  13	 102
  13	 103
  13	 105
  13	 107
  13	 108
  13	 109
  13	 112
  13	 113
  13	 114
  13	 116
  13	 117
  13	 119
  14	  15
  14	  16
  14	  17
  14	  18
  14	  24
  14	  26
  14	  30
  14	  31
  14	  32
  14	  33
  14	  36
  14	  37
  14	  39
  14	  40
  14	  41
  14	  42
  14	  43
  14	  44
  14	  45
  14	  46
  14	  52
  14	  58
  14	  59
  14	  61
  14	  62
  14	  64
  14	  65
  14	  67
  14	  68
  14	  69
  14	  70
  14	  71
  14	  77
  14	  81
  14	  84
  14	  85
  14	  86
  14	  87
  14	  88
  14	  91
  14	  93
  14	  95
  14	  97
  14	 100
  14	 102
  14	 106
  14	 109
  14	 110
  14	 111
  14	 112
  14	 113
  14	 116
  14	 117
  15	  16
  15	  18
  15	  21
  15	  22
  15	  24
  15	  27
  15	  28
  15	  30
  15	  32
  15	  33
  15	  35
  15	  37
  15	  39
  15	  41
  15	  42
  15	  43
  15	  47
  15	  49
  15	  52
  15	  54
  15	  55
  15	  56
  15	  64
  15	  65
  15	  66
  15	  67
  15	  69
  15	  70
  15	  71
  15	  72
  15	  77
  15	  78
  15	  80
  15	  81
  15	  84
  15	  89
  15	  91
  15	  93
  15	  94
  15	  95
  15	  96
  15	  97
  15	  98
  15	 101
  15	 104
  15	 105
  15	 106
  15	 109
  15	 110
  15	 114
  15	 116
  16	  17
  16	  20
  16	  22
  16	  23
  16	  24
  16	  25
  16	  26
  16	  29
  16	  31
  16	  33
  16	  36
  16	  39
  16	  40
  16	  42
  16	  43
  16	  44
  16	  45
  16	  46
  16	  48
  16	  49
  16	  53
  16	  55
  16	  56
  16	  59
  16	  60
  16	  62
  16	  63
  16	  68
  16	  72
  16	  74
  16	  75
  16	  76
  16	  77
  16	  79
  16	  80
  16	  82
  16	  85
  16	  87
  16	  91
  16	  93
  16	  94
  16	  95
  16	  97
  16	  98
  16	 101
  16	 107
  16	 109
  16	 110
  16	 112
  16	 113
  16	 114
  16	 115
  16	 116
  16	 118
  16	 119
  17	  23
  17	  28
  17	  29
  17	  32
  17	  33
  17	  34
  17	  35
  17	  36
  17	  39
  17	  40
  17	  41
  17	  43
  17	  44
  17	  47
  17	  49
  17	  50
  17	  51
  17	  53
  17	  54
  17	  55
  17	  56
  17	  58
  17	  59
  17	  60
  17	  61
  17	  62
  17	  64
  17	  65
  17	  68
  17	  69
  17	  71
  17	  72
  17	  74
  17	  75
  17	  79
  17	  81
  17	  82
  17	  83
  17	  85
  17	  87
  17	  88
  17	  89
  17	  93
  17	  95
  17	  96
  17	  97
  17	  98
  17	  99
  17	 100
  17	 102
  17	 103
  17	 104
  17	 106
  17	 107
  17	 108
  17	 109
  17	 110
  17	 111
  17	 112
  17	 115
  17	 117
  17	 118
  18	  24
  18	  26
  18	  29
  18	  31
  18	  33
  18	  34
  18	  35
  18	  38
  18	  39
  18	  40
  18	  42
  18	  43
  18	  44
  18	  48
  18	  49
  18	  50
  18	  52
  18	  53
  18	  54
  18	  55
  18	  56
  18	  63
  18	  66
  18	  67
  18	  68
  18	  69
  18	  70
  18	  71
  18	  75
  18	  79
  18	  84
  18	  85
  18	  86
  18	  87
  18	  88
  18	  89
  18	  90
  18	  92
  18	  97
  18	  99
  18	 100
  18	 103
  18	 105
  18	 106
  18	 107
  19	  22
  19	  24
  19	  25
  19	  26
  19	  27
  19	  28
  19	  31
  19	  33
  19	  37
  19	  38
  19	  41
  19	  42
  19	  46
  19	  48
  19	  49
  19	  50
  19	  51
  19	  53
  19	  54
  19	  57
  19	  58
  19	  60
  19	  61
  19	  62
  19	  64
  19	  66
  19	  67
  19	  69
  19	  70
  19	  71
  19	  73
  19	  76
  19	  77
  19	  79
  19	  80
  19	  85
  19	  86
  19	  87
  19	  90
  19	  92
  19	  94
  19	  97
  19	 100
  19	 102
  19	 106
  19	 107
  19	 109
  19	 112
  19	 113
  19	 115
  19	 116
  19	 117
  19	 118
  19	 119
  20	  26
  20	  27
  20	  28
  20	  30
  20	  31
  20	  32
  20	  34
  20	  36
  20	  42
  20	  45
  20	  46
  20	  47
  20	  48
  20	  50
  20	  52
  20	  53
  20	  54
  20	  55
  20	  56
  20	  57
  20	  58
  20	  61
  20	  62
  20	  63
  20	  69
  20	  70
  20	  72
  20	  79
  20	  80
  20	  85
  20	  87
  20	  88
  20	  89
  20	  90
  20	  91
  20	  93
  20	  94
  20	  95
  20	  99
  20	 101
  20	 103
  20	 104
  20	 105
  20	 106
  20	 108
  20	 109
  20	 110
  20	 111
  20	 113
  20	 116
  20	 117
  20	 118
  20	 119
  21	  22
  21	  23
  21	  25
  21	  26
  21	  29
  21	  31
  21	  32
  21	  33
  21	  34
  21	  35
  21	  40
  21	  41
  21	  44
  21	  47
  21	  49
  21	  50
  21	  51
  21	  52
  21	  54
  21	  60
  21	  61
  21	  67
  21	  68
  21	  69
  21	  74
  21	  75
  21	  76
  21	  77
  21	  81
  21	  84
  21	  85
  21	  89
  21	  92
  21	  93
  21	  95
  21	  97
  21	  99
  21	 101
  21	 103
  21	 107
  21	 112
  21	 113
  21	 116
  21	 117
  21	 118
  22	  23
  22	  28
  22	  31
  22	  32
  22	  33
  22	  34
  22	  35
  22	  37
  22	  39
  22	  40
  22	  41
  22	  42
  22	  43
  22	  44
  22	  46
  22	  47
  22	  48
  22	  50
  22	  51
  22	  52
  22	  53
  22	  59
  22	  60
  22	  61
  22	  63
  22	  64
  22	  67
  22	  68
  22	  70
  22	  71
  22	  72
  22	  74
  22	  76
  22	  78
  22	  80
  22	  82
  22	  83
  22	  86
  22	  87
  22	  89
  22	  92
  22	  93
  22	  95
  22	  98
  22	 101
  22	 102
  22	 103
  22	 104
  22	 105
  22	 106
  22	 107
  22	 113
  22	 114
  22	 115
  22	 118
  22	 119
  23	  24
  23	  26
  23	  28
  23	  29
  23	  30
  23	  31
  23	  32
  23	  33
  23	  35
  23	  36
  23	  37
  23	  40
  23	  41
  23	  48
  23	  49
  23	  51
  23	  52
  23	  53
  23	  54
  23	  57
  23	  61
  23	  63
  23	  65
  23	  66
  23	  67
  23	  70
  23	  72
  23	  76
  23	  77
  23	  79
  23	  82
  23	  87
  23	  89
  23	  91
  23	  92
  23	  93
  23	  94
  23	  98
  23	  99
  23	 101
  23	 102
  23	 104
  23	 105
  23	 106
  23	 111
  23	 112
  23	 113
  23	 115
  23	 117
  23	 119
  24	  27
  24	  32
  24	  35
  24	  36
  24	  38
  24	  43
  24	  45
  24	  49
  24	  50
  24	  56
  24	  59
  24	  61
  24	  62
  24	  64
  24	  65
  24	  66
  24	  68
  24	  70
  24	  71
  24	  78
  24	  79
  24	  80
  24	  81
  24	  84
  24	  85
  24	  90
  24	  95
  24	  97
  24	  98
  24	 100
  24	 102
  24	 107
  24	 108
  24	 110
  24	 112
  24	 114
  24	 118
  24	 119
  25	  27
  25	  31
  25	  33
  25	  36
  25	  37
  25	  39
  25	  41
  25	  45
  25	  47
  25	  50
  25	  56
  25	  61
  25	  62
  25	  63
  25	  67
  25	  69
  25	  70
  25	  71
  25	  83
  25	  84
  25	  86
  25	  88
  25	  91
  25	  92
  25	  94
  25	  96
  25	  97
  25	  99
  25	 105
  25	 106
  25	 107
  25	 108
  25	 110
  25	 112
  25	 114
  25	 115
  25	 116
  25	 118
  25	 119
  26	  27
  26	  28
  26	  30
  26	  31
  26	  33
  26	  35
  26	  36
  26	  37
  26	  40
  26	  42
  26	  45
  26	  46
  26	  52
  26	  53
  26	  54
  26	  56
  26	  61
  26	  67
  26	  69
  26	  71
  26	  74
  26	  75
  26	  77
  26	  79
  26	  84
  26	  87
  26	  88
  26	  93
  26	  94
  26	  99
  26	 100
  26	 103
  26	 104
  26	 107
  26	 108
  26	 113
  26	 116
  26	 118
  27	  29
  27	  30
  27	  33
  27	  34
  27	  35
  27	  36
  27	  37
  27	  39
  27	  42
  27	  48
  27	  49
  27	  50
  27	  53
  27	  58
  27	  59
  27	  61
  27	  62
  27	  63
  27	  65
  27	  66
  27	  67
  27	  68
  27	  71
  27	  73
  27	  75
  27	  76
  27	  82
  27	  85
  27	  86
  27	  91
  27	  92
  27	  95
  27	  97
  27	 102
  27	 104
  27	 107
  27	 108
  27	 109
  27	 110
  27	 113
  27	 117
  27	 118
  28	  30
  28	  31
  28	  35
  28	  36
  28	  38
  28	  39
  28	  40
  28	  41
  28	  42
  28	  43
  28	  45
  28	  48
  28	  49
  28	  50
  28	  51
  28	  52
  28	  55
  28	  59
  28	  60
  28	  61
  28	  62
  28	  63
  28	  65
  28	  68
  28	  69
  28	  73
  28	  74
  28	  77
  28	  83
  28	  84
  28	  86
  28	  93
  28	  95
  28	 100
  28	 101
  28	 103
  28	 105
  28	 106
  28	 107
  28	 109
  28	 110
  28	 111
  28	 112
  28	 113
  28	 118
  28	 119
  29	  30
  29	  31
  29	  32
  29	  33
  29	  35
  29	  36
  29	  37
  29	  39
  29	  40
  29	  43
  29	  44
  29	  48
  29	  49
  29	  51
  29	  52
  29	  55
  29	  59
  29	  60
  29	  64
  29	  66
  29	  67
  29	  68
  29	  69
  29	  70
  29	  71
  29	  72
  29	  78
  29	  80
  29	  84
  29	  86
  29	  87
  29	  89
  29	  91
  29	 101
  29	 102
  29	 103
  29	 105
  29	 112
  29	 118
  29	 119
  30	  31
  30	  33
  30	  34
  30	  38
  30	  40
  30	  42
  30	  44
  30	  46
  30	  47
  30	  49
  30	  51
  30	  52
  30	  54
  30	  56
  30	  58
  30	  59
  30	  60
  30	  61
  30	  62
  30	  63
  30	  64
  30	  67
  30	  69
  30	  70
  30	  74
  30	  75
  30	  76
  30	  77
  30	  78
  30	  80
  30	  82
  30	  84
  30	  85
  30	  87
  30	  89
  30	  90
  30	  91
  30	  92
  30	  94
  30	  97
  30	  99
  30	 100
  30	 102
  30	 103
  30	 104
  30	 108
  30	 115
  30	 116
  30	 117
  30	 118
  31	  32
  31	  33
  31	  34
  31	  35
  31	  36
  31	  37
  31	  38
  31	  39
  31	  41
  31	  43
  31	  45
  31	  50
  31	  51
  31	  54
  31	  55
  31	  56
  31	  57
  31	  58
  31	  59
  31	  61
  31	  64
  31	  66
  31	  67
  31	  75
  31	  77
  31	  79
  31	  80
  31	  83
  31	  86
  31	  87
  31	  88
  31	  99
  31	 100
  31	 101
  31	 108
  31	 109
  31	 111
  31	 113
  31	 114
  31	 118
  32	  34
  32	  35
  32	  36
  32	  40
  32	  41
  32	  42
  32	  45
  32	  46
  32	  47
  32	  48
  32	  49
  32	  51
  32	  52
  32	  55
  32	  56
  32	  59
  32	  61
  32	  62
  32	  63
  32	  65
  32	  66
  32	  69
  32	  72
  32	  75
  32	  78
  32	  81
  32	  82
  32	  84
  32	  85
  32	  87
  32	  89
  32	  90
  32	  91
  32	  94
  32	  96
  32	  97
  32	  98
  32	  99
  32	 100
  32	 101
  32	 102
  32	 104
  32	 106
  32	 112
  32	 114
  32	 116
  32	 117
  32	 119
  33	  35
  33	  41
  33	  48
  33	  49
  33	  54
  33	  57
  33	  60
  33	  61
  33	  62
  33	  65
  33	  70
  33	  71
  33	  72
  33	  74
  33	  75
  33	  76
  33	  79
  33	  82
  33	  83
  33	  84
  33	  86
  33	  87
  33	  94
  33	  97
  33	  99
  33	 100
  33	 101
  33	 103
  33	 105
  33	 107
  33	 108
  33	 110
  33	 112
  33	 113
  33	 114
  33	 115
  33	 116
  33	 117
  33	 118
  33	 119
  34	  36
  34	  37
  34	  40
  34	  43
  34	  44
  34	  45
  34	  46
  34	  48
  34	  50
  34	  52
  34	  53
  34	  54
  34	  55
  34	  60
  34	  61
  34	  63
  34	  64
  34	  69
  34	  72
  34	  73
  34	  74
  34	  77
  34	  79
  34	  81
  34	  82
  34	  83
  34	  88
  34	  91
  34	  92
  34	  93
  34	  96
  34	  98
  34	  99
  34	 100
  34	 101
  34	 103
  34	 104
  34	 108
  34	 110
  34	 111
  34	 112
  34	 114
  34	 117
  34	 118
  35	  37
  35	  40
  35	  44
  35	  47
  35	  48
  35	  55
  35	  56
  35	  58
  35	  62
  35	  63
  35	  65
  35	  69
  35	  70
  35	  71
  35	  74
  35	  75
  35	  76
  35	  82
  35	  83
  35	  85
  35	  86
  35	  89
  35	  91
  35	  92
  35	  93
  35	  94
  35	  96
  35	  99
  35	 102
  35	 103
  35	 108
  35	 110
  35	 115
  35	 117
  35	 118
  35	 119
  36	  38
  36	  39
  36	  41
  36	  43
  36	  44
  36	  45
  36	  46
  36	  48
  36	  50
  36	  51
  36	  52
  36	  55
  36	  57
  36	  58
  36	  60
  36	  62
  36	  65
  36	  66
  36	  67
  36	  69
  36	  71
  36	  73
  36	  74
  36	  75
  36	  78
  36	  83
  36	  87
  36	  89
  36	  94
  36	  95
  36	  99
  36	 100
  36	 101
  36	 102
  36	 105
  36	 106
  36	 107
  36	 109
  36	 112
  36	 114
  36	 118
  36	 119
  37	  39
  37	  40
  37	  41
  37	  42
  37	  45
  37	  46
  37	  48
  37	  53
  37	  56
  37	  57
  37	  58
  37	  59
  37	  60
  37	  61
  37	  62
  37	  64
  37	  68
  37	  69
  37	  71
  37	  76
  37	  79
  37	  80
  37	  83
  37	  84
  37	  86
  37	  87
  37	  89
  37	  94
  37	  95
  37	  96
  37	  97
  37	  98
  37	 100
  37	 103
  37	 104
  37	 106
  37	 107
  37	 112
  37	 114
  37	 117
  38	  43
  38	  44
  38	  47
  38	  51
  38	  52
  38	  56
  38	  59
  38	  60
  38	  69
  38	  72
  38	  73
  38	  74
  38	  75
  38	  84
  38	  87
  38	  88
  38	  89
  38	  91
  38	  92
  38	  93
  38	  94
  38	  96
  38	  97
  38	 100
  38	 101
  38	 104
  38	 106
  38	 109
  38	 111
  38	 112
  38	 113
  38	 114
  38	 117
  38	 119
  39	  40
  39	  42
  39	  45
  39	  48
  39	  49
  39	  52
  39	  54
  39	  57
  39	  58
  39	  59
  39	  60
  39	  61
  39	  63
  39	  64
  39	  65
  39	  72
  39	  74
  39	  76
  39	  77
  39	  78
  39	  79
  39	  81
  39	  84
  39	  85
  39	  87
  39	  89
  39	  92
  39	  96
  39	  97
  39	  98
  39	 100
  39	 101
  39	 102
  39	 103
  39	 105
  39	 107
  39	 109
  39	 110
  39	 111
  39	 114
  39	 116
  40	  41
  40	  43
  40	  44
  40	  47
  40	  50
  40	  51
  40	  53
  40	  56
  40	  57
  40	  58
  40	  62
  40	  64
  40	  65
  40	  72
  40	  73
  40	  74
  40	  76
  40	  78
  40	  80
  40	  84
  40	  85
  40	  90
  40	  96
  40	  98
  40	  99
  40	 103
  40	 104
  40	 107
  40	 110
  40	 112
  40	 113
  40	 114
  40	 115
  40	 116
  40	 117
  40	 119
  41	  42
  41	  45
  41	  51
  41	  53
  41	  54
  41	  55
  41	  56
  41	  57
  41	  58
  41	  61
  41	  64
  41	  65
  41	  66
  41	  69
  41	  71
  41	  72
  41	  74
  41	  79
  41	  87
  41	  88
  41	  89
  41	  90
  41	  92
  41	  93
  41	  96
  41	  97
  41	  99
  41	 101
  41	 102
  41	 104
  41	 107
  41	 108
  41	 110
  41	 111
  41	 113
  41	 115
  41	 116
  41	 118
  41	 119
  42	  44
  42	  46
  42	  50
  42	  51
  42	  52
  42	  56
  42	  57
  42	  59
  42	  62
  42	  63
  42	  65
  42	  66
  42	  67
  42	  70
  42	  73
  42	  76
  42	  79
  42	  80
  42	  81
  42	  83
  42	  84
  42	  85
  42	  86
  42	  87
  42	  88
  42	  91
  42	  94
  42	  95
  42	  97
  42	 100
  42	 101
  42	 103
  42	 105
  42	 106
  42	 107
  42	 108
  42	 109
  42	 113
  42	 119
  43	  44
  43	  46
  43	  48
  43	  49
  43	  50
  43	  51
  43	  52
  43	  53
  43	  54
  43	  55
  43	  56
  43	  57
  43	  58
  43	  59
  43	  72
  43	  73
  43	  74
  43	  75
  43	  76
  43	  77
  43	  78
  43	  79
  43	  80
  43	  82
  43	  83
  43	  84
  43	  85
  43	  88
  43	  89
  43	  91
  43	  92
  43	  93
  43	  94
  43	  95
  43	  98
  43	  99
  43	 100
  43	 102
  43	 103
  43	 104
  43	 105
  43	 106
  43	 108
  43	 112
  43	 113
  43	 114
  43	 115
  43	 117
  43	 119
  44	  45
  44	  46
  44	  49
  44	  52
  44	  53
  44	  54
  44	  56
  44	  57
  44	  59
  44	  60
  44	  61
  44	  62
  44	  63
  44	  64
  44	  65
  44	  66
  44	  67
  44	  69
  44	  83
  44	  85
  44	  86
  44	  87
  44	  88
  44	  89
  44	  95
  44	  97
  44	  98
  44	  99
  44	 100
  44	 101
  44	 102
  44	 104
  44	 108
  44	 109
  44	 112
  44	 114
  44	 115
  44	 116
  44	 117
  44	 119
  45	  46
  45	  47
  45	  55
  45	  56
  45	  58
  45	  59
  45	  60
  45	  62
  45	  64
  45	  65
  45	  68
  45	  69
  45	  70
  45	  72
  45	  75
  45	  76
  45	  77
  45	  81
  45	  82
  45	  83
  45	  87
  45	  89
  45	  90
  45	  91
  45	  92
  45	  93
  45	  99
  45	 100
  45	 102
  45	 103
  45	 105
  45	 106
  45	 110
  45	 111
  45	 112
  45	 116
  45	 118
  45	 119
  46	  49
  46	  50
  46	  51
  46	  52
  46	  54
  46	  57
  46	  59
  46	  62
  46	  67
  46	  68
  46	  69
  46	  70
  46	  71
  46	  72
  46	  74
  46	  75
  46	  76
  46	  77
  46	  80
  46	  81
  46	  82
  46	  84
  46	  85
  46	  87
  46	  90
  46	  91
  46	  92
  46	  96
  46	  99
  46	 101
  46	 104
  46	 105
  46	 108
  46	 109
  46	 110
  46	 111
  46	 112
  46	 113
  46	 114
  46	 117
  47	  50
  47	  51
  47	  52
  47	  54
  47	  55
  47	  58
  47	  61
  47	  62
  47	  69
  47	  70
  47	  71
  47	  75
  47	  76
  47	  77
  47	  78
  47	  79
  47	  82
  47	  83
  47	  85
  47	  86
  47	  88
  47	  89
  47	  93
  47	  96
  47	  97
  47	  98
  47	  99
  47	 100
  47	 102
  47	 103
  47	 107
  47	 108
  47	 109
  47	 110
  47	 113
  47	 114
  47	 116
  47	 117
  47	 119
  48	  50
  48	  52
  48	  53
  48	  56
  48	  59
  48	  65
  48	  67
  48	  68
  48	  71
  48	  76
  48	  80
  48	  81
  48	  84
  48	  88
  48	  90
  48	  91
  48	  93
  48	  95
  48	  96
  48	  97
  48	  99
  48	 100
  48	 102
  48	 104
  48	 105
  48	 109
  48	 114
  48	 116
  48	 117
  49	  52
  49	  53
  49	  54
  49	  56
  49	  59
  49	  62
  49	  63
  49	  65
  49	  66
  49	  69
  49	  71
  49	  72
  49	  74
  49	  75
  49	  76
  49	  77
  49	  78
  49	  79
  49	  81
  49	  82
  49	  83
  49	  84
  49	  86
  49	  90
  49	  96
  49	  97
  49	 100
  49	 103
  49	 104
  49	 105
  49	 108
  49	 109
  49	 110
  49	 113
  49	 116
  49	 117
  49	 119
  50	  51
  50	  52
  50	  53
  50	  56
  50	  58
  50	  59
  50	  60
  50	  61
  50	  63
  50	  65
  50	  66
  50	  68
  50	  69
  50	  74
  50	  76
  50	  77
  50	  79
  50	  81
  50	  82
  50	  85
  50	  86
  50	  88
  50	  91
  50	  93
  50	  95
  50	  99
  50	 100
  50	 101
  50	 102
  50	 104
  50	 107
  50	 110
  50	 113
  50	 114
  50	 115
  50	 117
  50	 119
  51	  53
  51	  56
  51	  59
  51	  68
  51	  69
  51	  71
  51	  72
  51	  74
  51	  75
  51	  78
  51	  81
  51	  92
  51	  94
  51	  95
  51	  96
  51	  98
  51	  99
  51	 103
  51	 104
  51	 108
  51	 111
  51	 113
  51	 114
  51	 115
  51	 116
  52	  53
  52	  54
  52	  55
  52	  56
  52	  60
  52	  66
  52	  67
  52	  70
  52	  71
  52	  72
  52	  73
  52	  76
  52	  77
  52	  81
  52	  82
  52	  85
  52	  86
  52	  88
  52	  89
  52	  93
  52	  94
  52	  97
  52	  98
  52	 102
  52	 103
  52	 107
  52	 109
  52	 112
  52	 116
  52	 117
  52	 119
  53	  56
  53	  57
  53	  58
  53	  59
  53	  63
  53	  65
  53	  67
  53	  68
  53	  71
  53	  72
  53	  73
  53	  74
  53	  77
  53	  78
  53	  81
  53	  82
  53	  83
  53	  85
  53	  86
  53	  87
  53	  88
  53	  89
  53	  92
  53	  93
  53	  95
  53	  97
  53	  98
  53	  99
  53	 104
  53	 105
  53	 106
  53	 107
  53	 108
  53	 109
  53	 111
  53	 113
  53	 114
  53	 115
  53	 116
  53	 117
  53	 118
  54	  56
  54	  57
  54	  61
  54	  62
  54	  64
  54	  66
  54	  68
  54	  69
  54	  72
  54	  73
  54	  74
  54	  76
  54	  78
  54	  81
  54	  82
  54	  83
  54	  84
  54	  85
  54	  89
  54	  90
  54	  92
  54	  93
  54	  94
  54	  95
  54	  98
  54	 100
  54	 101
  54	 102
  54	 104
  54	 105
  54	 106
  54	 107
  54	 113
  54	 114
  54	 116
  54	 118
  55	  59
  55	  61
  55	  62
  55	  63
  55	  64
  55	  65
  55	  66
  55	  67
  55	  68
  55	  70
  55	  71
  55	  72
  55	  75
  55	  76
  55	  79
  55	  82
  55	  83
  55	  85
  55	  86
  55	  87
  55	  90
  55	  91
  55	  96
  55	 100
  55	 101
  55	 102
  55	 104
  55	 105
  55	 107
  55	 108
  55	 110
  55	 112
  55	 113
  55	 115
  55	 116
  55	 119
  56	  57
  56	  59
  56	  61
  56	  65
  56	  66
  56	  67
  56	  68
  56	  72
  56	  73
  56	  76
  56	  79
  56	  80
  56	  81
  56	  82
  56	  84
  56	  87
  56	  90
  56	  98
  56	  99
  56	 102
  56	 103
  56	 104
  56	 105
  56	 107
  56	 109
  56	 110
  56	 111
  56	 112
  56	 116
  56	 117
  57	  58
  57	  59
  57	  60
  57	  62
  57	  63
  57	  65
  57	  68
  57	  69
  57	  71
  57	  72
  57	  76
  57	  77
  57	  78
  57	  79
  57	  84
  57	  86
  57	  87
  57	  91
  57	  92
  57	  94
  57	  95
  57	  96
  57	  98
  57	 100
  57	 102
  57	 106
  57	 108
  57	 111
  57	 112
  57	 113
  57	 115
  58	  60
  58	  66
  58	  68
  58	  70
  58	  76
  58	  77
  58	  78
  58	  82
  58	  83
  58	  88
  58	  89
  58	  96
  58	  97
  58	  98
  58	  99
  58	 100
  58	 103
  58	 104
  58	 106
  58	 108
  58	 109
  58	 110
  58	 112
  58	 113
  58	 114
  58	 116
  58	 118
  59	  61
  59	  63
  59	  68
  59	  71
  59	  74
  59	  75
  59	  81
  59	  82
  59	  84
  59	  85
  59	  86
  59	  89
  59	  92
  59	  95
  59	  97
  59	  99
  59	 100
  59	 102
  59	 104
  59	 105
  59	 107
  59	 108
  59	 110
  59	 111
  59	 112
  59	 118
  59	 119
  60	  64
  60	  65
  60	  69
  60	  70
  60	  72
  60	  73
  60	  77
  60	  79
  60	  81
  60	  84
  60	  88
  60	  89
  60	  94
  60	  97
  60	  99
  60	 101
  60	 102
  60	 103
  60	 104
  60	 106
  60	 109
  60	 110
  60	 111
  60	 112
  60	 116
  60	 118
  60	 119
  61	  62
  61	  64
  61	  67
  61	  68
  61	  69
  61	  70
  61	  71
  61	  76
  61	  77
  61	  79
  61	  80
  61	  83
  61	  84
  61	  86
  61	  88
  61	  90
  61	  94
  61	  95
  61	  97
  61	  99
  61	 100
  61	 101
  61	 104
  61	 105
  61	 106
  61	 107
  61	 108
  61	 109
  61	 110
  61	 111
  61	 113
  61	 114
  61	 115
  61	 117
  62	  64
  62	  65
  62	  66
  62	  68
  62	  72
  62	  75
  62	  80
  62	  82
  62	  83
  62	  84
  62	  86
  62	  87
  62	  90
  62	  93
  62	  95
  62	  96
  62	  97
  62	  99
  62	 100
  62	 101
  62	 102
  62	 104
  62	 106
  62	 107
  62	 109
  62	 111
  62	 118
  62	 119
  63	  65
  63	  66
  63	  67
  63	  70
  63	  71
  63	  73
  63	  77
  63	  79
  63	  80
  63	  81
  63	  88
  63	  89
  63	  90
  63	  91
  63	  94
  63	  96
  63	  99
  63	 100
  63	 101
  63	 102
  63	 104
  63	 110
  63	 113
  63	 114
  63	 115
  63	 116
  63	 117
  63	 118
  64	  66
  64	  67
  64	  68
  64	  69
  64	  70
  64	  72
  64	  74
  64	  78
  64	  80
  64	  82
  64	  86
  64	  88
  64	  92
  64	  94
  64	  96
  64	  98
  64	 100
  64	 101
  64	 103
  64	 105
  64	 106
  64	 113
  64	 115
  64	 118
  64	 119
  65	  67
  65	  68
  65	  69
  65	  70
  65	  72
  65	  74
  65	  75
  65	  80
  65	  83
  65	  84
  65	  85
  65	  88
  65	  89
  65	  94
  65	  96
  65	  98
  65	 101
  65	 102
  65	 106
  65	 109
  65	 110
  65	 113
  65	 114
  65	 116
  65	 117
  66	  67
  66	  71
  66	  72
  66	  74
  66	  76
  66	  77
  66	  78
  66	  81
  66	  82
  66	  83
  66	  84
  66	  86
  66	  88
  66	  90
  66	  91
  66	  92
  66	  93
  66	  96
  66	  97
  66	  98
  66	  99
  66	 101
  66	 104
  66	 106
  66	 110
  66	 112
  66	 114
  66	 115
  66	 118
  66	 119
  67	  68
  67	  69
  67	  70
  67	  71
  67	  72
  67	  73
  67	  79
  67	  80
  67	  81
  67	  82
  67	  85
  67	  86
  67	  87
  67	  89
  67	  90
  67	  94
  67	 100
  67	 101
  67	 103
  67	 105
  67	 106
  67	 107
  67	 108
  67	 109
  67	 110
  67	 111
  67	 112
  67	 113
  67	 114
  67	 115
  67	 116
  67	 118
  67	 119
  68	  70
  68	  71
  68	  73
  68	  77
  68	  78
  68	  79
  68	  80
  68	  81
  68	  83
  68	  85
  68	  87
  68	  89
  68	  90
  68	  91
  68	  93
  68	  94
  68	  95
  68	  96
  68	  99
  68	 100
  68	 102
  68	 103
  68	 104
  68	 106
  68	 107
  68	 108
  68	 111
  68	 115
  68	 116
  68	 117
  68	 118
  68	 119
  69	  71
  69	  72
  69	  75
  69	  77
  69	  80
  69	  83
  69	  95
  69	 102
  69	 105
  69	 107
  69	 109
  69	 112
  69	 113
  69	 115
  69	 119
  70	  71
  70	  72
  70	  73
  70	  76
  70	  77
  70	  81
  70	  84
  70	  85
  70	  86
  70	  92
  70	  97
  70	  98
  70	  99
  70	 102
  70	 103
  70	 105
  70	 110
  70	 111
  70	 112
  70	 114
  70	 116
  70	 117
  70	 118
  70	 119
  71	  72
  71	  75
  71	  78
  71	  80
  71	  81
  71	  82
  71	  83
  71	  84
  71	  87
  71	  92
  71	  93
  71	  95
  71	  96
  71	  98
  71	 100
  71	 102
  71	 104
  71	 105
  71	 106
  71	 107
  71	 108
  71	 111
  71	 112
  71	 119
  72	  73
  72	  75
  72	  77
  72	  79
  72	  82
  72	  85
  72	  86
  72	  89
  72	  91
  72	  94
  72	  95
  72	  96
  72	  98
  72	  99
  72	 100
  72	 102
  72	 103
  72	 104
  72	 105
  72	 107
  72	 109
  72	 112
  72	 113
  72	 114
  72	 119
  73	  78
  73	  79
  73	  80
  73	  81
  73	  82
  73	  84
  73	  85
  73	  86
  73	  88
  73	  90
  73	  91
  73	  92
  73	  93
  73	  94
  73	  95
  73	  96
  73	  99
  73	 100
  73	 103
  73	 104
  73	 106
  73	 107
  73	 110
  73	 113
  73	 114
  73	 116
  73	 118
  74	  75
  74	  79
  74	  80
  74	  82
  74	  88
  74	  89
  74	  91
  74	  92
  74	  93
  74	  94
  74	  95
  74	  96
  74	  98
  74	 101
  74	 102
  74	 103
  74	 105
  74	 106
  74	 116
  74	 118
  74	 119
  75	  76
  75	  80
  75	  81
  75	  82
  75	  83
  75	  85
  75	  86
  75	  89
  75	  90
  75	  97
  75	  98
  75	  99
  75	 100
  75	 104
  75	 108
  75	 109
  75	 110
  75	 112
  75	 113
  75	 114
  75	 117
  75	 118
  76	  78
  76	  79
  76	  81
  76	  82
  76	  84
  76	  85
  76	  86
  76	  88
  76	  89
  76	  90
  76	  91
  76	  92
  76	  93
  76	  94
  76	  96
  76	  97
  76	  98
  76	 100
  76	 101
  76	 102
  76	 104
  76	 107
  76	 109
  76	 110
  76	 111
  76	 113
  76	 116
  76	 117
  76	 119
  77	  78
  77	  79
  77	  80
  77	  82
  77	  83
  77	  85
  77	  86
  77	  88
  77	  91
  77	  95
  77	  97
  77	  98
  77	  99
  77	 100
  77	 101
  77	 103
  77	 111
  77	 114
  77	 115
  77	 116
  77	 117
  77	 119
  78	  81
  78	  82
  78	  85
  78	  86
  78	  87
  78	  88
  78	  89
  78	  91
  78	  92
  78	  93
  78	  98
  78	  99
  78	 100
  78	 101
  78	 102
  78	 107
  78	 112
  78	 116
  78	 117
  78	 119
  79	  81
  79	  86
  79	  90
  79	  94
  79	  95
  79	  96
  79	  99
  79	 103
  79	 104
  79	 105
  79	 106
  79	 107
  79	 108
  79	 109
  79	 110
  79	 111
  79	 112
  79	 119
  80	  81
  80	  82
  80	  83
  80	  86
  80	  88
  80	  91
  80	  93
  80	  94
  80	  95
  80	  97
  80	  99
  80	 100
  80	 101
  80	 103
  80	 104
  80	 105
  80	 106
  80	 109
  80	 110
  80	 111
  80	 113
  80	 115
  81	  82
  81	  86
  81	  90
  81	  91
  81	  92
  81	  93
  81	  94
  81	  95
  81	  97
  81	  98
  81	 101
  81	 104
  81	 106
  81	 108
  81	 109
  81	 110
  81	 112
  81	 114
  81	 115
  81	 117
  81	 118
  81	 119
  82	  85
  82	  87
  82	  88
  82	  89
  82	  90
  82	  94
  82	  95
  82	  97
  82	  98
  82	  99
  82	 100
  82	 101
  82	 102
  82	 103
  82	 107
  82	 108
  82	 111
  82	 112
  82	 115
  82	 117
  82	 118
  83	  85
  83	  87
  83	  89
  83	  92
  83	  93
  83	  94
  83	  95
  83	  97
  83	  98
  83	  99
  83	 100
  83	 102
  83	 103
  83	 104
  83	 105
  83	 109
  83	 110
  83	 113
  83	 114
  84	  85
  84	  89
  84	  91
  84	  92
  84	  94
  84	  95
  84	  96
  84	  98
  84	 103
  84	 105
  84	 106
  84	 107
  84	 112
  84	 118
  85	  87
  85	  93
  85	  94
  85	  95
  85	  96
  85	  98
  85	  99
  85	 101
  85	 102
  85	 104
  85	 106
  85	 107
  85	 108
  85	 109
  85	 110
  85	 114
  85	 115
  86	  87
  86	  89
  86	  90
  86	  91
  86	  93
  86	  94
  86	  96
  86	  97
  86	 104
  86	 105
  86	 107
  86	 111
  86	 116
  86	 118
  86	 119
  87	  94
  87	  95
  87	  96
  87	  98
  87	  99
  87	 100
  87	 101
  87	 102
  87	 107
  87	 108
  87	 110
  87	 113
  87	 115
  87	 116
  88	  90
  88	  93
  88	  95
  88	  96
  88	  97
  88	  98
  88	  99
  88	 101
  88	 104
  88	 109
  88	 114
  88	 115
  88	 116
  88	 117
  88	 119
  89	  93
  89	  94
  89	  96
  89	  97
  89	 101
  89	 102
  89	 104
  89	 105
  89	 108
  89	 110
  89	 111
  89	 112
  89	 113
  89	 115
  89	 116
  89	 117
  90	  91
  90	  92
  90	  93
  90	  94
  90	  95
  90	  97
  90	  99
  90	 100
  90	 103
  90	 106
  90	 107
  90	 109
  90	 111
  90	 112
  90	 113
  90	 114
  90	 115
  90	 117
  90	 119
  91	  92
  91	  94
  91	  97
  91	  98
  91	 100
  91	 103
  91	 104
  91	 106
  91	 108
  91	 110
  91	 112
  91	 113
  91	 115
  91	 116
  92	  93
  92	  96
  92	  97
  92	 104
  92	 105
  92	 106
  92	 108
  92	 110
  92	 112
  92	 113
  92	 115
  92	 116
  92	 118
  93	  95
  93	  96
  93	 101
  93	 104
  93	 106
  93	 107
  93	 108
  93	 109
  93	 112
  93	 116
  93	 118
  93	 119
  94	  95
  94	 101
  94	 102
  94	 104
  94	 106
  94	 108
  94	 110
  94	 112
  94	 116
  94	 117
  94	 118
  95	  96
  95	  98
  95	  99
  95	 100
  95	 101
  95	 102
  95	 103
  95	 105
  95	 107
  95	 109
  95	 112
  95	 113
  95	 114
  95	 116
  95	 117
  95	 118
  95	 119
  96	  97
  96	 100
  96	 104
  96	 105
  96	 106
  96	 107
  96	 110
  96	 112
  96	 113
  96	 118
  96	 119
  97	  98
  97	 100
  97	 101
  97	 105
  97	 107
  97	 110
  97	 111
  97	 112
  97	 113
  97	 114
  97	 118
  98	 101
  98	 103
  98	 106
  98	 107
  98	 109
  98	 110
  98	 113
  98	 114
  98	 118
  99	 100
  99	 103
  99	 107
  99	 109
  99	 112
  99	 117
 100	 101
 100	 104
 100	 105
 100	 106
 100	 107
 100	 108
 100	 111
 100	 112
 100	 113
 100	 114
 100	 115
 100	 118
 100	 119
 101	 102
 101	 103
 101	 106
 101	 107
 101	 108
 101	 109
 101	 111
 101	 113
 101	 115
 101	 116
 101	 117
 101	 118
 101	 119
 102	 103
 102	 105
 102	 106
 102	 107
 102	 114
 102	 115
 102	 118
 102	 119
 103	 104
 103	 105
 103	 106
 103	 111
 103	 112
 103	 115
 103	 116
 103	 117
 103	 118
 103	 119
 104	 106
 104	 108
 104	 110
 104	 112
 104	 113
 104	 114
 104	 115
 104	 117
 104	 119
 105	 106
 105	 108
 105	 111
 105	 113
 105	 114
 105	 118
 106	 107
 106	 108
 106	 109
 106	 111
 106	 114
 106	 115
 106	 116
 107	 108
 107	 113
 107	 114
 107	 115
 107	 117
 108	 110
 108	 112
 108	 113
 108	 115
 109	 110
 109	 111
 109	 112
 109	 114
 109	 117
 109	 118
 110	 111
 110	 114
 110	 119
 111	 113
 111	 117
 111	 119
 112	 113
 112	 116
 112	 119
 113	 115
 113	 116
 113	 117
 114	 115
 114	 117
 114	 118
 115	 116
 115	 119
 116	 118
 116	 119
 117	 118
;
